/*********************************************
 * OPL 12.10.0.0 Data
 * Author: tt_sina
 * Creation Date: Nov 4, 2021 at 11:54:27 AM
 *********************************************/
n=7;
d=[[0 15 51 48 21 63 76]
   [15 0 35 44 37 49 71]
   [51 35 0 29 43 11 42]
   [48 44 29 0 28 21 22]
   [21 37 43 28 0 50 53]
   [63 49 11 21 50 0 30]
   [76 71 42 22 53 30 0]];